p tw 20 53
0 1
0 12
0 17
0 7
1 10
1 3
2 3
2 9
2 15
2 13
2 10
2 8
2 11
2 7
3 12
3 14
3 15
4 5
4 15
4 6
4 8
4 11
4 17
4 19
5 8
5 16
5 14
5 13
5 18
5 12
6 7
6 15
6 12
6 11
6 16
7 9
8 9
8 18
8 10
8 12
9 10
9 17
9 15
9 12
11 12
11 13
12 14
13 14
13 17
13 16
14 16
16 17
17 18
